0
Node Left Objective IInf Best_Integer Best_Bound ItCnt Gap
0 0 43.0201 6 43.0201 54
0 0 44.1279 8 Cuts:7 70
0 0 46.6047 8 Cuts:14 86
0 0 47.4257 8 Cuts:13 104
0 0 48.5153 7 Cuts:14 113
0+ 0 nan nan 52.9813 48.5153 nan 8.43%
0+ 0 nan nan 52.9813 48.5153 nan 8.43%
0 0 48.5153 7 52.9813 48.5153 188 8.43%
0 0 48.9425 8 52.9813 LiftProj:4 196 7.62%
0 0 49.0164 8 52.9813 LiftProj:5 198 7.48%
0 0 49.5726 8 52.9813 LiftProj:4 209 6.43%
0 0 49.7463 8 52.9813 LiftProj:5 221 6.11%
0 0 49.8334 8 52.9813 LiftProj:8 226 5.94%
0 0 49.9897 8 52.9813 LiftProj:6 239 5.65%
0 0 50.1112 8 52.9813 LiftProj:11 247 5.42%
0 0 50.1316 8 52.9813 LiftProj:7 256 5.38%
0 0 50.3339 8 52.9813 LiftProj:9 270 5.00%
0 0 50.7377 8 52.9813 LiftProj:10 278 4.23%
0+ 0 nan nan 52.9813 50.7377 nan 4.23%
0 0 50.8508 8 52.9813 LiftProj:7 283 4.02%
0 0 50.9548 8 52.9813 LiftProj:5 289 3.82%
0 0 50.9722 8 52.9813 LiftProj:5 293 3.79%
0 0 50.9735 8 52.9813 LiftProj:2 298 3.79%
0 0 51.0656 8 52.9813 LiftProj:1 303 3.62%
0 0 51.4687 8 52.9813 LiftProj:3 313 2.85%
0 0 51.5312 8 52.9813 LiftProj:2 315 2.74%
0 0 51.8239 6 52.9813 LiftProj:3 329 2.18%
0 0 51.9745 7 52.9813 LiftProj:2 335 1.90%
0 0 51.9943 7 52.9813 LiftProj:2 338 1.86%
0 0 52.0624 7 52.9813 LiftProj:2 342 1.73%
0 0 52.0969 7 52.9813 LiftProj:2 345 1.67%
0 0 52.0987 7 52.9813 LiftProj:1 346 1.67%
0 0 cutoff 52.9813 52.0987 346 1.67% 0
CPXPARAM_MIP_Cuts_Disjunctive-LiftProj-MIRCut-Covers:Disjunctive 0
CPXPARAM_MIP_Cuts_Disjunctive-LiftProj-MIRCut-Covers:LiftProj 0
CPXPARAM_MIP_Cuts_Disjunctive-LiftProj-MIRCut-Covers:MIRCut 15
CPXPARAM_MIP_Cuts_Disjunctive-LiftProj-MIRCut-Covers:Covers 0
1
Node Left Objective IInf Best_Integer Best_Bound ItCnt Gap
0 0 2.5600 6 2.5600 61
0 0 2.8243 6 Disjcuts:4 74
0 0 3.6607 7 Cuts:9 87
0+ 0 nan nan 11.3251 3.6607 nan 67.68%
0 0 4.6431 7 11.3251 Cuts:6 100 59.00%
0 0 4.8295 7 11.3251 Cuts:10 112 57.36%
0 0 5.1254 6 11.3251 Cuts:9 134 54.74%
0 0 5.1337 7 11.3251 MIRcuts:3 136 54.67%
0 0 5.1558 7 11.3251 Cuts:3 139 54.47%
0 0 5.1997 7 11.3251 Cuts:2 142 54.09%
0 0 5.2353 7 11.3251 Cuts:2 147 53.77%
0 0 5.3846 7 11.3251 LiftProj:2 156 52.45%
0 0 5.4915 7 11.3251 Cuts:3 163 51.51%
0 0 5.5126 7 11.3251 Cuts:2 166 51.32%
0 0 5.5128 7 11.3251 LiftProj:1 167 51.32%
0 0 5.5160 7 11.3251 LiftProj:2 168 51.29%
0 0 5.6204 7 11.3251 LiftProj:2 172 50.37%
0 0 5.6259 7 11.3251 LiftProj:2 174 50.32%
0 0 5.6985 7 11.3251 LiftProj:3 178 49.68%
0 0 5.7972 6 11.3251 LiftProj:3 185 48.81%
0 0 5.9347 7 11.3251 Cuts:4 191 47.60%
0 0 5.9504 7 11.3251 Cuts:5 194 47.46%
0 0 6.3369 7 11.3251 LiftProj:4 203 44.05%
0 0 6.6498 7 11.3251 LiftProj:5 215 41.28%
0 0 6.7474 7 11.3251 Cuts:4 223 40.42%
0 0 6.7517 7 11.3251 LiftProj:3 225 40.38%
0 0 6.9188 6 11.3251 LiftProj:3 232 38.91%
0 0 7.1282 7 11.3251 LiftProj:5 240 37.06%
0 0 7.1345 7 11.3251 LiftProj:3 243 37.00%
0 0 7.4150 7 11.3251 LiftProj:2 252 34.53%
0 0 8.2621 6 11.3251 LiftProj:3 266 27.05%
0+ 0 nan nan 11.3251 8.2621 nan 27.05%
0 0 8.2676 6 11.3251 LiftProj:3 269 27.00%
0 0 8.5571 6 11.3251 LiftProj:3 276 24.44%
0 0 8.8865 6 11.3251 LiftProj:3 282 21.53%
0 0 9.3340 5 11.3251 LiftProj:4 290 17.58%
0+ 0 nan nan 11.3251 9.3340 nan 17.58%
0 0 9.3340 5 11.3251 9.3340 359 17.58%
0 0 9.7241 5 11.3251 LiftProj:5 366 14.14%
0 0 9.9409 5 11.3251 LiftProj:2 371 12.22%
0 0 10.7882 3 11.3251 LiftProj:2 393 4.74%
0 0 cutoff 11.3251 410 0.00% 0 0
CPXPARAM_MIP_Cuts_Disjunctive-LiftProj-MIRCut-Covers:Disjunctive 0
CPXPARAM_MIP_Cuts_Disjunctive-LiftProj-MIRCut-Covers:LiftProj 0
CPXPARAM_MIP_Cuts_Disjunctive-LiftProj-MIRCut-Covers:MIRCut 9
CPXPARAM_MIP_Cuts_Disjunctive-LiftProj-MIRCut-Covers:Covers 0
2
Node Left Objective IInf Best_Integer Best_Bound ItCnt Gap
0 0 40.5363 2 40.5363 49
0 0 40.5363 2 Disjcuts:1 56
0+ 0 nan nan 40.6800 40.5363 nan 0.35%
0+ 0 nan nan 40.6800 40.5363 nan 0.35%
0 0 40.5363 2 40.6800 40.5363 104 0.35%
0 0 cutoff 40.6800 40.6800 109 0.00% 0
CPXPARAM_MIP_Cuts_Disjunctive-LiftProj-MIRCut-Covers:Disjunctive 0
CPXPARAM_MIP_Cuts_Disjunctive-LiftProj-MIRCut-Covers:LiftProj 0
CPXPARAM_MIP_Cuts_Disjunctive-LiftProj-MIRCut-Covers:MIRCut 0
CPXPARAM_MIP_Cuts_Disjunctive-LiftProj-MIRCut-Covers:Covers 0
3
Node Left Objective IInf Best_Integer Best_Bound ItCnt Gap
0 0 6.4123 1 6.4123 41
0+ 0 nan nan 6.4123 6.4123 nan 0.00%
0 0 cutoff 6.4123 6.4123 41 0.00% 0
CPXPARAM_MIP_Cuts_Disjunctive-LiftProj-MIRCut-Covers:Disjunctive 0
CPXPARAM_MIP_Cuts_Disjunctive-LiftProj-MIRCut-Covers:LiftProj 0
CPXPARAM_MIP_Cuts_Disjunctive-LiftProj-MIRCut-Covers:MIRCut 0
CPXPARAM_MIP_Cuts_Disjunctive-LiftProj-MIRCut-Covers:Covers 0
4
Node Left Objective IInf Best_Integer Best_Bound ItCnt Gap
0 0 50.7422 6 50.7422 57
0 0 50.8148 9 Cuts:11 70
0 0 51.4906 9 Cuts:11 81
0+ 0 nan nan 54.5576 51.4906 nan 5.62%
0+ 0 nan nan 54.5576 51.4906 nan 5.62%
0 0 51.4906 9 54.5576 51.4906 149 5.62%
0 0 51.5227 9 54.5576 LiftProj:3 154 5.56%
0 0 51.6373 9 54.5576 LiftProj:5 160 5.35%
0 0 51.6519 9 54.5576 LiftProj:3 164 5.33%
0 0 51.8293 9 54.5576 LiftProj:5 173 5.00%
0 0 51.8675 9 54.5576 LiftProj:4 177 4.93%
0 0 51.9033 9 54.5576 LiftProj:4 180 4.87%
0 0 51.9398 9 54.5576 LiftProj:3 185 4.80%
0 0 51.9916 9 54.5576 Cuts:4 189 4.70%
0 0 52.2381 9 54.5576 Cuts:9 198 4.25%
0 0 52.4726 9 54.5576 LiftProj:5 202 3.82%
0 0 52.6180 9 54.5576 LiftProj:4 208 3.56%
0 0 52.7808 9 54.5576 Cuts:6 214 3.26%
0 0 53.0412 9 54.5576 LiftProj:5 218 2.78%
0 0 53.2432 9 54.5576 LiftProj:6 225 2.41%
0 0 53.4291 8 54.5576 LiftProj:3 237 2.07%
0 0 53.5132 6 54.5576 LiftProj:3 246 1.91%
0 0 53.8031 6 54.5576 LiftProj:6 259 1.38%
0+ 0 nan nan 54.5576 53.8031 nan 1.38%
0 0 54.0278 5 54.5576 LiftProj:1 265 0.97%
0 0 54.2192 3 54.5576 LiftProj:2 272 0.62%
0 0 54.3544 3 54.5576 LiftProj:3 275 0.37%
0 0 cutoff 54.5576 287 0.00% 0 0
CPXPARAM_MIP_Cuts_Disjunctive-LiftProj-MIRCut-Covers:Disjunctive 0
CPXPARAM_MIP_Cuts_Disjunctive-LiftProj-MIRCut-Covers:LiftProj 0
CPXPARAM_MIP_Cuts_Disjunctive-LiftProj-MIRCut-Covers:MIRCut 5
CPXPARAM_MIP_Cuts_Disjunctive-LiftProj-MIRCut-Covers:Covers 0
5
Node Left Objective IInf Best_Integer Best_Bound ItCnt Gap
0 0 2.3864 6 2.3864 56
0 0 2.4308 8 Cuts:4 67
0 0 3.4576 8 Cuts:9 80
0+ 0 nan nan 13.6225 3.4576 nan 74.62%
0 0 4.3265 8 13.6225 Cuts:11 98 68.24%
0 0 5.2480 8 13.6225 Cuts:11 118 61.48%
0 0 5.7671 8 13.6225 Cuts:9 135 57.66%
0 0 5.8957 7 13.6225 Cuts:5 145 56.72%
0 0 6.0028 7 13.6225 LiftProj:4 152 55.93%
0 0 6.0488 7 13.6225 LiftProj:4 157 55.60%
0 0 6.1420 6 13.6225 LiftProj:4 162 54.91%
0 0 6.3829 7 13.6225 LiftProj:5 177 53.14%
0 0 6.5617 7 13.6225 LiftProj:2 188 51.83%
0 0 6.6530 7 13.6225 Cuts:8 196 51.16%
0 0 6.7881 7 13.6225 LiftProj:3 208 50.17%
0 0 7.0150 7 13.6225 LiftProj:4 218 48.50%
0 0 7.7991 7 13.6225 LiftProj:3 232 42.75%
0 0 8.0105 7 13.6225 Cuts:8 238 41.20%
0 0 8.2884 6 13.6225 LiftProj:5 249 39.16%
0 0 8.5187 7 13.6225 LiftProj:3 255 37.47%
0 0 8.5454 7 13.6225 LiftProj:6 259 37.27%
0 0 8.6625 7 13.6225 LiftProj:4 265 36.41%
0 0 8.8514 7 13.6225 LiftProj:5 274 35.02%
0 0 8.8923 7 13.6225 LiftProj:5 279 34.72%
0 0 8.9440 7 13.6225 LiftProj:4 285 34.34%
0 0 9.0487 7 13.6225 LiftProj:4 300 33.58%
0 0 9.1161 7 13.6225 LiftProj:4 310 33.08%
0 0 9.2319 7 13.6225 LiftProj:3 317 32.23%
0 0 9.3953 7 13.6225 Cuts:4 322 31.03%
0 0 9.7350 6 13.6225 LiftProj:6 332 28.54%
0 0 9.8426 7 13.6225 Cuts:4 337 27.75%
0 0 10.0557 7 13.6225 LiftProj:4 343 26.18%
0 0 11.1584 6 13.6225 LiftProj:4 361 18.09%
0 0 11.3353 6 13.6225 LiftProj:6 367 16.79%
0+ 0 nan nan 13.6225 11.3353 nan 16.79%
0 0 11.3353 6 13.6225 11.3353 433 16.79%
0 0 11.8727 4 13.6225 Cuts:5 453 12.84%
0 0 12.2458 4 13.6225 LiftProj:2 465 10.11%
0+ 0 nan nan 13.6225 12.2458 nan 10.11%
0 0 12.7443 4 13.6225 LiftProj:1 473 6.45%
0 0 cutoff 13.6225 493 0.00% 0 0
CPXPARAM_MIP_Cuts_Disjunctive-LiftProj-MIRCut-Covers:Disjunctive 0
CPXPARAM_MIP_Cuts_Disjunctive-LiftProj-MIRCut-Covers:LiftProj 0
CPXPARAM_MIP_Cuts_Disjunctive-LiftProj-MIRCut-Covers:MIRCut 8
CPXPARAM_MIP_Cuts_Disjunctive-LiftProj-MIRCut-Covers:Covers 0
6
Node Left Objective IInf Best_Integer Best_Bound ItCnt Gap
0+ 0 nan nan 698.6785 -80.3724 nan 111.50%
0 0 49.1770 2 698.6785 49.1770 57 92.96%
0 0 49.1770 2 698.6785 Disjcuts:1 60 92.96%
0 2 49.1770 2 698.6785 49.1770 62 92.96%
CPXPARAM_MIP_Cuts_Disjunctive-LiftProj-MIRCut-Covers:Disjunctive 0
CPXPARAM_MIP_Cuts_Disjunctive-LiftProj-MIRCut-Covers:LiftProj 0
CPXPARAM_MIP_Cuts_Disjunctive-LiftProj-MIRCut-Covers:MIRCut 0
CPXPARAM_MIP_Cuts_Disjunctive-LiftProj-MIRCut-Covers:Covers 1
7
Node Left Objective IInf Best_Integer Best_Bound ItCnt Gap
0 0 7.4387 2 7.4387 48
0+ 0 nan nan 9.7351 7.4387 nan 23.59%
0 0 7.4387 2 9.7351 Disjcuts:1 52 23.59%
0+ 0 nan nan 9.7351 7.4387 nan 23.59%
0 0 7.4387 2 9.7351 7.4387 103 23.59%
0 1 7.5968 2 9.7351 8.6605 103 11.04%
CPXPARAM_MIP_Cuts_Disjunctive-LiftProj-MIRCut-Covers:Disjunctive 0
CPXPARAM_MIP_Cuts_Disjunctive-LiftProj-MIRCut-Covers:LiftProj 0
CPXPARAM_MIP_Cuts_Disjunctive-LiftProj-MIRCut-Covers:MIRCut 0
CPXPARAM_MIP_Cuts_Disjunctive-LiftProj-MIRCut-Covers:Covers 1
8
Node Left Objective IInf Best_Integer Best_Bound ItCnt Gap
0 0 65.7942 6 65.7942 62
0 0 65.8043 8 Cuts:8 73
0 0 65.8491 8 Cuts:12 82
0+ 0 nan nan 67.9165 65.8491 nan 3.04%
0+ 0 nan nan 67.9165 65.8491 nan 3.04%
0 0 65.8491 8 67.9165 65.8491 150 3.04%
0 0 65.8760 7 67.9165 Cuts:9 160 3.00%
0 0 65.8778 7 67.9165 LiftProj:4 162 3.00%
0 0 66.0518 7 67.9165 LiftProj:4 174 2.75%
0 0 66.0825 7 67.9165 LiftProj:3 177 2.70%
0 0 66.3394 7 67.9165 LiftProj:3 187 2.32%
0 0 66.3560 7 67.9165 LiftProj:2 189 2.30%
0 0 66.3784 7 67.9165 LiftProj:3 191 2.26%
0 0 66.6688 6 67.9165 LiftProj:4 203 1.84%
0 0 66.7572 7 67.9165 Cuts:5 206 1.71%
0 0 66.8795 7 67.9165 LiftProj:3 211 1.53%
0 0 66.8964 7 67.9165 LiftProj:3 214 1.50%
0 0 67.0053 6 67.9165 LiftProj:2 219 1.34%
0 0 67.1764 4 67.9165 LiftProj:1 232 1.09%
0 0 67.3028 3 67.9165 LiftProj:2 237 0.90%
0 0 67.7148 2 67.9165 LiftProj:2 243 0.30%
0 0 cutoff 67.9165 67.7148 250 0.30% 0
CPXPARAM_MIP_Cuts_Disjunctive-LiftProj-MIRCut-Covers:Disjunctive 0
CPXPARAM_MIP_Cuts_Disjunctive-LiftProj-MIRCut-Covers:LiftProj 0
CPXPARAM_MIP_Cuts_Disjunctive-LiftProj-MIRCut-Covers:MIRCut 5
CPXPARAM_MIP_Cuts_Disjunctive-LiftProj-MIRCut-Covers:Covers 0
9
Node Left Objective IInf Best_Integer Best_Bound ItCnt Gap
0 0 11.8594 6 11.8594 54
0 0 13.0587 8 Cuts:15 69
0 0 14.3400 9 Cuts:15 79
0 0 14.9580 9 Cuts:12 90
0 0 15.5614 9 Cuts:12 106
0 0 16.1743 9 Cuts:15 131
0 0 16.2028 9 LiftProj:4 138
0 0 16.2051 9 LiftProj:6 139
0 0 16.2137 9 LiftProj:5 142
0 0 16.2582 9 LiftProj:6 156
0 0 16.3193 9 LiftProj:3 163
0 0 16.3227 9 Cuts:6 165
0 0 16.3551 9 Cuts:6 172
0 0 16.3839 9 LiftProj:2 177
0 0 16.3917 9 LiftProj:3 179
0 0 16.4045 9 LiftProj:5 182
0 0 16.4167 9 LiftProj:3 191
0 0 16.4211 9 Cuts:2 193
0 0 16.4433 9 LiftProj:2 200
0 2 16.4433 9 16.4522 200 0 0
CPXPARAM_MIP_Cuts_Disjunctive-LiftProj-MIRCut-Covers:Disjunctive 1
CPXPARAM_MIP_Cuts_Disjunctive-LiftProj-MIRCut-Covers:LiftProj 0
CPXPARAM_MIP_Cuts_Disjunctive-LiftProj-MIRCut-Covers:MIRCut 10
CPXPARAM_MIP_Cuts_Disjunctive-LiftProj-MIRCut-Covers:Covers 2
10
Node Left Objective IInf Best_Integer Best_Bound ItCnt Gap
0 0 60.5073 2 60.5073 52
0+ 0 nan nan 60.5115 60.5073 nan 0.01%
CPXPARAM_MIP_Cuts_Disjunctive-LiftProj-MIRCut-Covers:Disjunctive 0
CPXPARAM_MIP_Cuts_Disjunctive-LiftProj-MIRCut-Covers:LiftProj 0
CPXPARAM_MIP_Cuts_Disjunctive-LiftProj-MIRCut-Covers:MIRCut 0
CPXPARAM_MIP_Cuts_Disjunctive-LiftProj-MIRCut-Covers:Covers 0
11
Node Left Objective IInf Best_Integer Best_Bound ItCnt Gap
0 0 16.6537 2 16.6537 50
0+ 0 nan nan 16.6575 16.6537 nan 0.02%
0+ 0 nan nan 16.6575 16.6537 nan 0.02%
0 0 16.6537 1 16.6575 16.6537 109 0.02%
0 0 cutoff 16.6575 113 0.00% 0 0
CPXPARAM_MIP_Cuts_Disjunctive-LiftProj-MIRCut-Covers:Disjunctive 0
CPXPARAM_MIP_Cuts_Disjunctive-LiftProj-MIRCut-Covers:LiftProj 0
CPXPARAM_MIP_Cuts_Disjunctive-LiftProj-MIRCut-Covers:MIRCut 0
CPXPARAM_MIP_Cuts_Disjunctive-LiftProj-MIRCut-Covers:Covers 0
12
Node Left Objective IInf Best_Integer Best_Bound ItCnt Gap
0 0 44.2061 6 44.2061 61
0 0 45.3583 9 Cuts:13 78
0 0 46.7496 9 Cuts:16 89
0 0 48.1516 9 Cuts:16 100
0 0 49.1911 9 Cuts:13 112
0 0 49.5790 9 Cuts:12 124
0 0 49.6091 9 Cuts:10 129
0 0 49.6737 9 Cuts:8 143
0 0 49.7411 9 Cuts:8 149
0 0 49.8140 9 Cuts:9 159
0 0 49.9213 8 LiftProj:6 171
0 0 49.9247 9 Cuts:8 176
0 0 50.0963 9 Cuts:9 186
0 0 50.2493 9 Cuts:6 189
0 0 50.5831 9 LiftProj:6 194
0 0 50.6349 9 LiftProj:5 199
0 0 50.6860 9 LiftProj:6 202
0+ 0 nan nan 55.3987 50.6860 nan 8.51%
0+ 0 nan nan 55.3987 50.6860 nan 8.51%
0 0 50.6860 9 55.3987 50.6860 271 8.51%
0 0 50.8635 8 55.3987 LiftProj:4 275 8.19%
0 0 50.9437 8 55.3987 LiftProj:4 280 8.04%
0 0 51.1079 8 55.3987 LiftProj:7 289 7.75%
0 0 51.2356 9 55.3987 LiftProj:3 294 7.51%
0 0 51.2665 9 55.3987 LiftProj:6 299 7.46%
0 0 51.2774 9 55.3987 LiftProj:3 300 7.44%
0 0 51.2965 9 55.3987 LiftProj:2 302 7.40%
0 0 51.3339 9 55.3987 LiftProj:2 307 7.34%
0 2 51.3413 8 55.3987 51.4620 307 7.11%
CPXPARAM_MIP_Cuts_Disjunctive-LiftProj-MIRCut-Covers:Disjunctive 0
CPXPARAM_MIP_Cuts_Disjunctive-LiftProj-MIRCut-Covers:LiftProj 0
CPXPARAM_MIP_Cuts_Disjunctive-LiftProj-MIRCut-Covers:MIRCut 19
CPXPARAM_MIP_Cuts_Disjunctive-LiftProj-MIRCut-Covers:Covers 0
13
Node Left Objective IInf Best_Integer Best_Bound ItCnt Gap
0 0 10.2945 6 10.2945 57
0+ 0 nan nan 16.4316 10.2945 nan 37.35%
0 0 10.4942 8 16.4316 Disjcuts:5 70 36.13%
0 0 10.8973 8 16.4316 Cuts:10 81 33.68%
0 0 11.3533 8 16.4316 Cuts:10 92 30.91%
0 0 11.6979 8 16.4316 Cuts:10 103 28.81%
0 0 12.1984 7 16.4316 Cuts:9 120 25.76%
0 0 12.3500 7 16.4316 Cuts:8 129 24.84%
0 0 12.4458 7 16.4316 LiftProj:4 135 24.26%
0 0 12.4634 7 16.4316 LiftProj:4 140 24.15%
0 0 12.5316 6 16.4316 LiftProj:3 147 23.73%
0 0 12.5346 7 16.4316 LiftProj:2 155 23.72%
0 0 12.5529 7 16.4316 LiftProj:4 160 23.61%
0 0 12.5629 7 16.4316 LiftProj:4 168 23.54%
0 0 12.5897 7 16.4316 LiftProj:3 173 23.38%
0 0 12.6019 7 16.4316 LiftProj:2 176 23.31%
0 0 12.6097 7 16.4316 Cuts:6 181 23.26%
0 0 12.6143 7 16.4316 LiftProj:3 187 23.23%
0 0 12.6613 7 16.4316 LiftProj:4 194 22.95%
0 0 12.7162 7 16.4316 LiftProj:3 197 22.61%
0 0 12.7363 7 16.4316 LiftProj:4 202 22.49%
0 0 12.7828 7 16.4316 LiftProj:4 207 22.21%
0 0 12.7955 7 16.4316 LiftProj:3 209 22.13%
0 0 12.8998 7 16.4316 LiftProj:3 216 21.49%
0 0 12.9515 7 16.4316 LiftProj:3 221 21.18%
0 0 12.9977 7 16.4316 LiftProj:3 224 20.90%
0 0 13.0152 7 16.4316 LiftProj:2 226 20.79%
0 0 13.0382 7 16.4316 LiftProj:2 232 20.65%
0 0 13.0979 7 16.4316 LiftProj:2 236 20.29%
0 2 13.0979 7 16.4316 13.1080 236 20.23%
CPXPARAM_MIP_Cuts_Disjunctive-LiftProj-MIRCut-Covers:Disjunctive 0
CPXPARAM_MIP_Cuts_Disjunctive-LiftProj-MIRCut-Covers:LiftProj 0
CPXPARAM_MIP_Cuts_Disjunctive-LiftProj-MIRCut-Covers:MIRCut 13
CPXPARAM_MIP_Cuts_Disjunctive-LiftProj-MIRCut-Covers:Covers 0
14
Node Left Objective IInf Best_Integer Best_Bound ItCnt Gap
0 0 46.5469 2 46.5469 53
0+ 0 nan nan 47.4290 46.5469 nan 1.86%
0 0 46.5469 2 47.4290 Disjcuts:1 57 1.86%
0+ 0 nan nan 47.4290 46.5469 nan 1.86%
0 0 46.5469 2 47.4290 46.5469 111 1.86%
0 0 cutoff 47.4290 119 0.00% 0 0
CPXPARAM_MIP_Cuts_Disjunctive-LiftProj-MIRCut-Covers:Disjunctive 0
CPXPARAM_MIP_Cuts_Disjunctive-LiftProj-MIRCut-Covers:LiftProj 0
CPXPARAM_MIP_Cuts_Disjunctive-LiftProj-MIRCut-Covers:MIRCut 0
CPXPARAM_MIP_Cuts_Disjunctive-LiftProj-MIRCut-Covers:Covers 1
15
Node Left Objective IInf Best_Integer Best_Bound ItCnt Gap
0+ 0 nan nan 754.6210 -94.3684 nan 112.51%
0 0 10.7585 2 754.6210 10.7585 50 98.57%
0 0 10.7585 2 754.6210 Disjcuts:1 53 98.57%
0+ 0 nan nan 15.2716 10.7585 nan 29.55%
0 0 10.7585 2 15.2716 Disjcuts:1 56 29.55%
0 2 10.7585 2 15.2716 10.7585 56 29.55%
CPXPARAM_MIP_Cuts_Disjunctive-LiftProj-MIRCut-Covers:Disjunctive 0
CPXPARAM_MIP_Cuts_Disjunctive-LiftProj-MIRCut-Covers:LiftProj 0
CPXPARAM_MIP_Cuts_Disjunctive-LiftProj-MIRCut-Covers:MIRCut 0
CPXPARAM_MIP_Cuts_Disjunctive-LiftProj-MIRCut-Covers:Covers 2
16
Node Left Objective IInf Best_Integer Best_Bound ItCnt Gap
0 0 58.8715 6 58.8715 57
0 0 59.6608 7 Disjcuts:4 70
0 0 60.8556 5 Disjcuts:5 80
0+ 0 nan nan 61.8856 60.8556 nan 1.66%
0+ 0 nan nan 61.8856 60.8556 nan 1.66%
0 0 60.8572 4 61.8856 60.8572 138 1.66%
0 0 60.8670 5 61.8856 LiftProj:1 140 1.65%
0 0 60.8942 5 61.8856 LiftProj:1 141 1.60%
0 0 61.0461 5 61.8856 LiftProj:1 148 1.36%
0 0 61.0558 5 61.8856 Cuts:2 150 1.34%
0 0 61.0570 5 61.8856 LiftProj:1 151 1.34%
0 0 61.0606 5 61.8856 LiftProj:1 154 1.33%
0 0 0 61.8856 61.0606 167 1.33%
0 0 61.8856 0 61.8856 61.8856 167 0.00%
CPXPARAM_MIP_Cuts_Disjunctive-LiftProj-MIRCut-Covers:Disjunctive 0
CPXPARAM_MIP_Cuts_Disjunctive-LiftProj-MIRCut-Covers:LiftProj 1
CPXPARAM_MIP_Cuts_Disjunctive-LiftProj-MIRCut-Covers:MIRCut 3
CPXPARAM_MIP_Cuts_Disjunctive-LiftProj-MIRCut-Covers:Covers 2
17
Node Left Objective IInf Best_Integer Best_Bound ItCnt Gap
0 0 10.2675 6 10.2675 65
0 0 10.4236 8 Cuts:8 76
0 0 11.3358 8 Cuts:11 89
0+ 0 nan nan 21.7788 11.3358 nan 47.95%
0 0 11.7550 9 21.7788 Cuts:10 100 46.03%
0 0 12.3018 9 21.7788 Cuts:13 110 43.51%
0 0 12.4473 9 21.7788 Cuts:12 118 42.85%
0 0 12.5650 9 21.7788 Cuts:5 125 42.31%
0 0 12.5974 9 21.7788 Cuts:5 129 42.16%
0 0 12.6677 9 21.7788 LiftProj:2 135 41.83%
0 0 12.6730 9 21.7788 LiftProj:1 137 41.81%
0 2 12.7852 7 21.7788 12.9043 137 40.75%
CPXPARAM_MIP_Cuts_Disjunctive-LiftProj-MIRCut-Covers:Disjunctive 0
CPXPARAM_MIP_Cuts_Disjunctive-LiftProj-MIRCut-Covers:LiftProj 0
CPXPARAM_MIP_Cuts_Disjunctive-LiftProj-MIRCut-Covers:MIRCut 4
CPXPARAM_MIP_Cuts_Disjunctive-LiftProj-MIRCut-Covers:Covers 6
18
Node Left Objective IInf Best_Integer Best_Bound ItCnt Gap
0+ 0 nan nan 850.5680 -92.8051 nan 110.91%
0 0 58.3813 2 850.5680 58.3813 51 93.14%
0 0 58.3813 2 850.5680 Cuts:4 55 93.14%
0+ 0 nan nan 58.4112 58.3813 nan 0.05%
0+ 0 nan nan 58.4112 58.3813 nan 0.05%
0 0 58.3813 2 58.4112 58.3813 113 0.05%
0 0 cutoff 58.4112 58.3813 120 0.05% 0
CPXPARAM_MIP_Cuts_Disjunctive-LiftProj-MIRCut-Covers:Disjunctive 0
CPXPARAM_MIP_Cuts_Disjunctive-LiftProj-MIRCut-Covers:LiftProj 0
CPXPARAM_MIP_Cuts_Disjunctive-LiftProj-MIRCut-Covers:MIRCut 1
CPXPARAM_MIP_Cuts_Disjunctive-LiftProj-MIRCut-Covers:Covers 2
19
Node Left Objective IInf Best_Integer Best_Bound ItCnt Gap
0+ 0 nan nan 682.2187 -97.6235 nan 114.31%
0 0 15.5882 2 682.2187 15.5882 47 97.72%
0 0 15.5882 2 682.2187 Disjcuts:1 49 97.72%
0+ 0 nan nan 15.7874 15.5882 nan 1.26%
0 0 15.5882 2 15.7874 Disjcuts:1 52 1.26%
0+ 0 nan nan 15.7874 15.5882 nan 1.26%
0 0 15.5882 2 15.7874 15.5882 96 1.26%
0 0 15.5882 2 15.7874 MIRcuts:3 101 1.26%
0 2 15.5934 3 15.7874 15.5963 101 1.21%
CPXPARAM_MIP_Cuts_Disjunctive-LiftProj-MIRCut-Covers:Disjunctive 0
CPXPARAM_MIP_Cuts_Disjunctive-LiftProj-MIRCut-Covers:LiftProj 1
CPXPARAM_MIP_Cuts_Disjunctive-LiftProj-MIRCut-Covers:MIRCut 0
CPXPARAM_MIP_Cuts_Disjunctive-LiftProj-MIRCut-Covers:Covers 2
20
Node Left Objective IInf Best_Integer Best_Bound ItCnt Gap
0 0 31.6179 6 31.6179 61
0 0 31.6325 7 Disjcuts:4 73
0 0 0 34.4860 34.4860 95 0.00% 0
CPXPARAM_MIP_Cuts_Disjunctive-LiftProj-MIRCut-Covers:Disjunctive 0
CPXPARAM_MIP_Cuts_Disjunctive-LiftProj-MIRCut-Covers:LiftProj 0
CPXPARAM_MIP_Cuts_Disjunctive-LiftProj-MIRCut-Covers:MIRCut 0
CPXPARAM_MIP_Cuts_Disjunctive-LiftProj-MIRCut-Covers:Covers 0
21
Node Left Objective IInf Best_Integer Best_Bound ItCnt Gap
0 0 5.4416 6 5.4416 61
0 0 5.6106 8 Cuts:6 82
0 0 7.0573 7 Disjcuts:4 97
0+ 0 nan nan 9.1778 7.0573 nan 23.11%
0 0 7.6794 7 9.1778 Cuts:7 105 16.33%
0 0 7.8756 6 9.1778 Cuts:5 114 14.19%
0+ 0 nan nan 9.1778 7.8756 nan 14.19%
0 0 7.8756 6 9.1778 7.8756 184 14.19%
0 0 8.0566 6 9.1778 Cuts:3 200 12.22%
0 0 8.0865 7 9.1778 LiftProj:1 205 11.89%
0 0 8.1581 7 9.1778 Cuts:7 212 11.11%
0 0 cutoff 9.1778 8.1581 212 11.11% 0
CPXPARAM_MIP_Cuts_Disjunctive-LiftProj-MIRCut-Covers:Disjunctive 0
CPXPARAM_MIP_Cuts_Disjunctive-LiftProj-MIRCut-Covers:LiftProj 0
CPXPARAM_MIP_Cuts_Disjunctive-LiftProj-MIRCut-Covers:MIRCut 1
CPXPARAM_MIP_Cuts_Disjunctive-LiftProj-MIRCut-Covers:Covers 5
22
Node Left Objective IInf Best_Integer Best_Bound ItCnt Gap
0 0 28.4414 2 28.4414 42
0+ 0 nan nan 28.5540 28.4414 nan 0.39%
0 0 28.4414 2 28.5540 Disjcuts:1 46 0.39%
0+ 0 nan nan 28.5540 28.4414 nan 0.39%
0 0 28.4414 2 28.5540 28.4414 92 0.39%
0 0 28.4414 2 28.5540 LiftProj:1 94 0.39%
0+ 0 nan nan 28.5434 28.4414 nan 0.36%
0 1 28.4505 2 28.5434 28.4505 97 0.33%
CPXPARAM_MIP_Cuts_Disjunctive-LiftProj-MIRCut-Covers:Disjunctive 0
CPXPARAM_MIP_Cuts_Disjunctive-LiftProj-MIRCut-Covers:LiftProj 0
CPXPARAM_MIP_Cuts_Disjunctive-LiftProj-MIRCut-Covers:MIRCut 1
CPXPARAM_MIP_Cuts_Disjunctive-LiftProj-MIRCut-Covers:Covers 1
23
Node Left Objective IInf Best_Integer Best_Bound ItCnt Gap
0 0 3.9556 2 3.9556 52
0+ 0 nan nan 4.0841 3.9556 nan 3.15%
0+ 0 nan nan 4.0841 3.9556 nan 3.15%
0 0 3.9556 1 4.0841 3.9556 109 3.15%
0 0 3.9573 1 4.0841 LiftProj:1 111 3.10%
0 0 cutoff 4.0841 117 0.00% 0 0
CPXPARAM_MIP_Cuts_Disjunctive-LiftProj-MIRCut-Covers:Disjunctive 0
CPXPARAM_MIP_Cuts_Disjunctive-LiftProj-MIRCut-Covers:LiftProj 0
CPXPARAM_MIP_Cuts_Disjunctive-LiftProj-MIRCut-Covers:MIRCut 1
CPXPARAM_MIP_Cuts_Disjunctive-LiftProj-MIRCut-Covers:Covers 0
24
Node Left Objective IInf Best_Integer Best_Bound ItCnt Gap
0 0 34.8025 6 34.8025 60
0+ 0 nan nan 38.6713 34.8025 nan 10.00%
0 0 34.8319 8 38.6713 Cuts:12 73 9.93%
0 0 35.6475 8 38.6713 Cuts:4 84 7.82%
0+ 0 nan nan 38.6713 35.6475 nan 7.82%
0 0 35.6475 8 38.6713 35.6475 145 7.82%
0 0 35.7844 8 38.6713 LiftProj:4 150 7.47%
0 0 35.8934 8 38.6713 LiftProj:3 156 7.18%
0 0 35.8988 8 38.6713 LiftProj:2 158 7.17%
0 0 36.1885 8 38.6713 LiftProj:4 169 6.42%
0 0 36.7536 8 38.6713 LiftProj:5 180 4.96%
0 0 36.9668 7 38.6713 LiftProj:3 189 4.41%
0 0 37.6613 5 38.6713 Cuts:2 206 2.61%
0+ 0 nan nan 38.6713 37.6613 nan 2.61%
0 0 38.2935 5 38.6713 LiftProj:3 220 0.98%
0+ 0 nan nan 38.6713 38.3385 nan 0.86%
0 0 38.6711 2 38.6713 LiftProj:1 233 0.00%
CPXPARAM_MIP_Cuts_Disjunctive-LiftProj-MIRCut-Covers:Disjunctive 0
CPXPARAM_MIP_Cuts_Disjunctive-LiftProj-MIRCut-Covers:LiftProj 1
CPXPARAM_MIP_Cuts_Disjunctive-LiftProj-MIRCut-Covers:MIRCut 4
CPXPARAM_MIP_Cuts_Disjunctive-LiftProj-MIRCut-Covers:Covers 0
25
Node Left Objective IInf Best_Integer Best_Bound ItCnt Gap
0 0 0.4196 6 0.4196 63
0 0 0.6887 7 Disjcuts:4 80
0 0 1.6781 6 Disjcuts:4 106
0 0 0 7.4242 7.4242 134 0.00% 0
CPXPARAM_MIP_Cuts_Disjunctive-LiftProj-MIRCut-Covers:Disjunctive 0
CPXPARAM_MIP_Cuts_Disjunctive-LiftProj-MIRCut-Covers:LiftProj 0
CPXPARAM_MIP_Cuts_Disjunctive-LiftProj-MIRCut-Covers:MIRCut 0
CPXPARAM_MIP_Cuts_Disjunctive-LiftProj-MIRCut-Covers:Covers 0
26
Node Left Objective IInf Best_Integer Best_Bound ItCnt Gap
0 0 0 36.9182 36.9182 54 0.00% 0
CPXPARAM_MIP_Cuts_Disjunctive-LiftProj-MIRCut-Covers:Disjunctive 0
CPXPARAM_MIP_Cuts_Disjunctive-LiftProj-MIRCut-Covers:LiftProj 0
CPXPARAM_MIP_Cuts_Disjunctive-LiftProj-MIRCut-Covers:MIRCut 0
CPXPARAM_MIP_Cuts_Disjunctive-LiftProj-MIRCut-Covers:Covers 0
27
Node Left Objective IInf Best_Integer Best_Bound ItCnt Gap
0 0 4.5323 2 4.5323 44
0+ 0 nan nan 4.5514 4.5323 nan 0.42%
0 0 4.5323 2 4.5514 Disjcuts:1 48 0.42%
0+ 0 nan nan 4.5514 4.5323 nan 0.42%
0 0 4.5323 2 4.5514 4.5323 101 0.42%
0 0 4.5323 2 4.5514 LiftProj:1 104 0.42%
0 0 4.5323 2 4.5514 LiftProj:1 106 0.42%
0 2 4.5342 3 4.5514 4.5364 106 0.33%
CPXPARAM_MIP_Cuts_Disjunctive-LiftProj-MIRCut-Covers:Disjunctive 0
CPXPARAM_MIP_Cuts_Disjunctive-LiftProj-MIRCut-Covers:LiftProj 0
CPXPARAM_MIP_Cuts_Disjunctive-LiftProj-MIRCut-Covers:MIRCut 1
CPXPARAM_MIP_Cuts_Disjunctive-LiftProj-MIRCut-Covers:Covers 1
28
Node Left Objective IInf Best_Integer Best_Bound ItCnt Gap
0 0 63.6500 6 63.6500 54
0 0 64.7895 8 Cuts:6 67
0 0 67.2057 7 Disjcuts:7 77
0+ 0 nan nan 74.1734 67.2057 nan 9.39%
0+ 0 nan nan 74.1734 67.2057 nan 9.39%
0 0 67.2057 7 74.1734 67.2057 134 9.39%
0 0 67.8163 7 74.1734 Cuts:4 142 8.57%
0 0 68.0373 7 74.1734 Cuts:4 148 8.27%
0 0 68.1828 7 74.1734 Cuts:5 155 8.08%
0 0 68.7944 7 74.1734 Cuts:4 170 7.25%
0 0 68.8135 7 74.1734 LiftProj:3 176 7.23%
0 0 68.8658 7 74.1734 LiftProj:3 179 7.16%
0 0 69.1045 7 74.1734 LiftProj:3 187 6.83%
0 0 69.1773 7 74.1734 LiftProj:4 190 6.74%
0 0 69.3066 7 74.1734 LiftProj:3 195 6.56%
0 0 71.7612 5 74.1734 LiftProj:2 215 3.25%
0 0 71.9758 6 74.1734 LiftProj:2 219 2.96%
0 0 72.6599 5 74.1734 LiftProj:3 229 2.04%
0 0 72.7627 5 74.1734 LiftProj:2 232 1.90%
0 0 72.8744 5 74.1734 LiftProj:1 237 1.75%
0 0 73.0332 5 74.1734 LiftProj:2 245 1.54%
0 0 73.5054 5 74.1734 Cuts:6 255 0.90%
0 0 73.6396 5 74.1734 LiftProj:2 258 0.72%
0 0 73.7676 5 74.1734 LiftProj:2 265 0.55%
0 0 0 74.1734 73.7676 280 0.55%
0 0 74.1734 0 74.1734 74.1734 280 0.00%
CPXPARAM_MIP_Cuts_Disjunctive-LiftProj-MIRCut-Covers:Disjunctive 0
CPXPARAM_MIP_Cuts_Disjunctive-LiftProj-MIRCut-Covers:LiftProj 0
CPXPARAM_MIP_Cuts_Disjunctive-LiftProj-MIRCut-Covers:MIRCut 7
CPXPARAM_MIP_Cuts_Disjunctive-LiftProj-MIRCut-Covers:Covers 0
29
Node Left Objective IInf Best_Integer Best_Bound ItCnt Gap
0+ 0 nan nan 994.8986 -114.3356 nan 111.49%
0+ 0 nan nan 37.2949 -114.3356 nan 406.57%
0 0 6.3884 6 37.2949 6.3884 54 82.87%
0 0 6.3884 6 37.2949 Cuts:5 58 82.87%
0 0 6.3884 6 37.2949 Cuts:3 61 82.87%
0 2 6.3884 7 37.2949 6.3884 61 82.87%
CPXPARAM_MIP_Cuts_Disjunctive-LiftProj-MIRCut-Covers:Disjunctive 0
CPXPARAM_MIP_Cuts_Disjunctive-LiftProj-MIRCut-Covers:LiftProj 1
CPXPARAM_MIP_Cuts_Disjunctive-LiftProj-MIRCut-Covers:MIRCut 3
CPXPARAM_MIP_Cuts_Disjunctive-LiftProj-MIRCut-Covers:Covers 0
30
Node Left Objective IInf Best_Integer Best_Bound ItCnt Gap
0+ 0 nan nan 514.4143 -106.7235 nan 120.75%
0+ 0 nan nan 83.5731 -106.7235 nan 227.70%
0 0 69.0899 2 83.5731 69.0899 47 17.33%
0 0 69.0899 2 83.5731 Cuts:2 50 17.33%
0+ 0 nan nan 69.6843 69.0899 nan 0.85%
0+ 0 nan nan 69.6843 69.0899 nan 0.85%
0 0 69.0899 2 69.6843 69.0899 99 0.85%
0 0 69.0899 2 69.6843 MIRcuts:1 100 0.85%
0 0 69.0899 2 69.6843 LiftProj:1 102 0.85%
0 1 69.0899 2 69.6843 69.0899 105 0.85%
CPXPARAM_MIP_Cuts_Disjunctive-LiftProj-MIRCut-Covers:Disjunctive 0
CPXPARAM_MIP_Cuts_Disjunctive-LiftProj-MIRCut-Covers:LiftProj 0
CPXPARAM_MIP_Cuts_Disjunctive-LiftProj-MIRCut-Covers:MIRCut 2
CPXPARAM_MIP_Cuts_Disjunctive-LiftProj-MIRCut-Covers:Covers 0
31
Node Left Objective IInf Best_Integer Best_Bound ItCnt Gap
0 0 7.6579 2 7.6579 41
0+ 0 nan nan 8.0780 7.6579 nan 5.20%
0 0 7.6579 2 8.0780 Disjcuts:1 44 5.20%
0+ 0 nan nan 8.0780 7.6579 nan 5.20%
0 0 7.6579 2 8.0780 7.6579 87 5.20%
0 1 7.7002 2 8.0780 7.9356 89 1.76%
CPXPARAM_MIP_Cuts_Disjunctive-LiftProj-MIRCut-Covers:Disjunctive 0
CPXPARAM_MIP_Cuts_Disjunctive-LiftProj-MIRCut-Covers:LiftProj 0
CPXPARAM_MIP_Cuts_Disjunctive-LiftProj-MIRCut-Covers:MIRCut 0
CPXPARAM_MIP_Cuts_Disjunctive-LiftProj-MIRCut-Covers:Covers 1
32
Node Left Objective IInf Best_Integer Best_Bound ItCnt Gap
0 0 46.2013 6 46.2013 60
0 0 46.2394 7 Disjcuts:5 71
0 0 46.4378 7 Disjcuts:3 83
0 0 47.0129 7 Cuts:9 94
0 0 47.4054 7 Cuts:10 113
0+ 0 nan nan 49.3481 47.4054 nan 3.94%
0+ 0 nan nan 49.3481 47.4054 nan 3.94%
0 0 47.4054 7 49.3481 47.4054 188 3.94%
0 0 47.4927 7 49.3481 LiftProj:3 192 3.76%
0 0 47.5050 7 49.3481 LiftProj:2 194 3.73%
0 0 47.5757 7 49.3481 LiftProj:3 200 3.59%
0 0 cutoff 49.3481 47.5757 200 3.59% 0
CPXPARAM_MIP_Cuts_Disjunctive-LiftProj-MIRCut-Covers:Disjunctive 0
CPXPARAM_MIP_Cuts_Disjunctive-LiftProj-MIRCut-Covers:LiftProj 0
CPXPARAM_MIP_Cuts_Disjunctive-LiftProj-MIRCut-Covers:MIRCut 4
CPXPARAM_MIP_Cuts_Disjunctive-LiftProj-MIRCut-Covers:Covers 3
33
Node Left Objective IInf Best_Integer Best_Bound ItCnt Gap
0 0 0.8948 6 0.8948 57
0 0 1.6642 8 Cuts:6 71
0 0 7.3682 6 Disjcuts:2 89
0+ 0 nan nan 11.6907 7.3682 nan 36.97%
0 0 cutoff 11.6907 108 0.00% 0 0
CPXPARAM_MIP_Cuts_Disjunctive-LiftProj-MIRCut-Covers:Disjunctive 0
CPXPARAM_MIP_Cuts_Disjunctive-LiftProj-MIRCut-Covers:LiftProj 0
CPXPARAM_MIP_Cuts_Disjunctive-LiftProj-MIRCut-Covers:MIRCut 0
CPXPARAM_MIP_Cuts_Disjunctive-LiftProj-MIRCut-Covers:Covers 4
34
Node Left Objective IInf Best_Integer Best_Bound ItCnt Gap
0 0 41.8656 2 41.8656 44
0+ 0 nan nan 41.9255 41.8656 nan 0.14%
0 0 cutoff 41.9255 41.8656 51 0.14% 0
CPXPARAM_MIP_Cuts_Disjunctive-LiftProj-MIRCut-Covers:Disjunctive 0
CPXPARAM_MIP_Cuts_Disjunctive-LiftProj-MIRCut-Covers:LiftProj 0
CPXPARAM_MIP_Cuts_Disjunctive-LiftProj-MIRCut-Covers:MIRCut 0
CPXPARAM_MIP_Cuts_Disjunctive-LiftProj-MIRCut-Covers:Covers 0
35
Node Left Objective IInf Best_Integer Best_Bound ItCnt Gap
0 0 10.6421 2 10.6421 45
0+ 0 nan nan 10.9052 10.6421 nan 2.41%
0+ 0 nan nan 10.9052 10.6421 nan 2.41%
0 0 10.6421 1 10.9052 10.6421 99 2.41%
0 0 10.6455 1 10.9052 LiftProj:1 101 2.38%
0 0 cutoff 10.9052 101 0.00% 0 0
CPXPARAM_MIP_Cuts_Disjunctive-LiftProj-MIRCut-Covers:Disjunctive 0
CPXPARAM_MIP_Cuts_Disjunctive-LiftProj-MIRCut-Covers:LiftProj 0
CPXPARAM_MIP_Cuts_Disjunctive-LiftProj-MIRCut-Covers:MIRCut 1
CPXPARAM_MIP_Cuts_Disjunctive-LiftProj-MIRCut-Covers:Covers 0
36
Node Left Objective IInf Best_Integer Best_Bound ItCnt Gap
0 0 48.4886 6 48.4886 59
0 0 48.5199 7 Disjcuts:3 68
0 0 49.2132 5 Disjcuts:4 75
0+ 0 nan nan 52.9256 49.2132 nan 7.01%
0+ 0 nan nan 52.9256 49.2132 nan 7.01%
0 0 49.2132 5 52.9256 49.2132 141 7.01%
0 0 49.2413 7 52.9256 Cuts:3 146 6.96%
0 0 49.5455 7 52.9256 LiftProj:2 154 6.39%
0 0 49.6172 7 52.9256 LiftProj:1 156 6.25%
0 0 cutoff 52.9256 49.6172 156 6.25% 0
CPXPARAM_MIP_Cuts_Disjunctive-LiftProj-MIRCut-Covers:Disjunctive 0
CPXPARAM_MIP_Cuts_Disjunctive-LiftProj-MIRCut-Covers:LiftProj 0
CPXPARAM_MIP_Cuts_Disjunctive-LiftProj-MIRCut-Covers:MIRCut 3
CPXPARAM_MIP_Cuts_Disjunctive-LiftProj-MIRCut-Covers:Covers 3
37
Node Left Objective IInf Best_Integer Best_Bound ItCnt Gap
0 0 -6.1266 6 -6.1266 62
0 0 -5.6413 9 Cuts:10 76
0 0 -3.9051 8 Disjcuts:8 90
0 0 -1.9915 8 Cuts:12 111
0 0 -1.3443 8 Cuts:11 125
0 0 -0.2175 8 Cuts:11 141
0 0 -0.1132 8 Cuts:5 150
0 0 0.3478 8 LiftProj:7 163
0 0 0.4781 8 Cuts:7 168
0 0 0.6824 8 LiftProj:5 174
0 0 0.8817 8 Cuts:6 186
0+ 0 nan nan 10.0443 0.8817 nan 91.22%
0 0 0.9827 8 10.0443 Cuts:5 191 90.22%
0 0 1.0151 8 10.0443 Cuts:6 195 89.89%
0 0 1.2572 8 10.0443 Cuts:5 204 87.48%
0 0 1.6454 8 10.0443 Cuts:8 214 83.62%
0 0 1.6863 8 10.0443 LiftProj:7 225 83.21%
0 0 1.8368 8 10.0443 LiftProj:6 234 81.71%
0 0 1.8843 8 10.0443 LiftProj:7 238 81.24%
0 0 2.1987 8 10.0443 LiftProj:4 248 78.11%
0 0 2.3212 8 10.0443 LiftProj:5 258 76.89%
0 0 2.4518 8 10.0443 LiftProj:8 266 75.59%
0 0 2.6454 8 10.0443 Cuts:6 272 73.66%
0 0 2.6939 8 10.0443 Cuts:8 275 73.18%
0 0 2.9042 8 10.0443 LiftProj:7 285 71.09%
0 0 2.9260 8 10.0443 LiftProj:3 290 70.87%
0 0 2.9730 8 10.0443 LiftProj:4 296 70.40%
0 0 3.0469 8 10.0443 LiftProj:4 304 69.67%
0 0 3.0735 8 10.0443 LiftProj:2 307 69.40%
0 0 3.1207 8 10.0443 LiftProj:5 315 68.93%
0 0 3.1327 8 10.0443 LiftProj:4 319 68.81%
0 0 3.1356 8 10.0443 Cuts:5 321 68.78%
0 0 3.1962 8 10.0443 LiftProj:4 329 68.18%
0 0 3.2381 8 10.0443 Cuts:5 337 67.76%
0 0 3.2480 8 10.0443 Cuts:4 340 67.66%
0 0 3.2701 8 10.0443 Cuts:5 345 67.44%
0 0 3.2858 8 10.0443 LiftProj:3 351 67.29%
0 0 3.6502 8 10.0443 LiftProj:3 358 63.66%
0 0 4.2729 8 10.0443 LiftProj:4 380 57.46%
0 0 4.5650 8 10.0443 LiftProj:14 387 54.55%
0 0 4.7021 8 10.0443 Cuts:10 394 53.19%
0 0 4.7215 8 10.0443 LiftProj:5 398 52.99%
0 0 5.0694 8 10.0443 LiftProj:5 408 49.53%
0 0 5.2543 8 10.0443 LiftProj:11 418 47.69%
0 0 5.3427 8 10.0443 LiftProj:5 429 46.81%
0 0 5.8164 8 10.0443 LiftProj:10 442 42.09%
0 0 6.1144 8 10.0443 Cuts:14 457 39.13%
0 0 6.1630 8 10.0443 Cuts:6 466 38.64%
0 0 6.2185 8 10.0443 LiftProj:10 472 38.09%
0 0 6.3184 8 10.0443 LiftProj:9 480 37.09%
0 0 6.4392 8 10.0443 Cuts:5 489 35.89%
0 0 6.4566 8 10.0443 LiftProj:3 493 35.72%
0 0 6.4641 8 10.0443 LiftProj:5 499 35.64%
0 0 6.4858 8 10.0443 LiftProj:4 506 35.43%
0 0 6.5111 8 10.0443 LiftProj:4 512 35.18%
0 0 6.5244 8 10.0443 LiftProj:4 517 35.04%
0 0 6.6550 8 10.0443 Cuts:5 525 33.74%
0 0 6.7023 8 10.0443 LiftProj:11 530 33.27%
0 0 6.7861 8 10.0443 LiftProj:6 533 32.44%
0 0 6.7900 8 10.0443 LiftProj:3 535 32.40%
0 0 6.8209 8 10.0443 LiftProj:2 537 32.09%
0 0 7.3002 8 10.0443 LiftProj:9 549 27.32%
0+ 0 nan nan 10.0443 7.3002 nan 27.32%
0 0 7.3002 8 10.0443 7.3002 639 27.32%
0 0 7.3724 8 10.0443 LiftProj:3 644 26.60%
0 0 7.3892 8 10.0443 LiftProj:10 648 26.43%
0 0 7.4019 8 10.0443 LiftProj:6 651 26.31%
0 0 7.4321 8 10.0443 LiftProj:1 653 26.01%
0 0 7.4560 8 10.0443 LiftProj:1 657 25.77%
0 0 7.4626 8 10.0443 LiftProj:4 659 25.70%
0 0 7.5127 8 10.0443 LiftProj:4 666 25.20%
0 0 7.5197 8 10.0443 LiftProj:3 669 25.13%
0 0 7.5308 8 10.0443 LiftProj:2 673 25.02%
0 0 7.5326 8 10.0443 LiftProj:1 674 25.01%
0 0 cutoff 10.0443 7.5326 674 25.01% 0
CPXPARAM_MIP_Cuts_Disjunctive-LiftProj-MIRCut-Covers:Disjunctive 2
CPXPARAM_MIP_Cuts_Disjunctive-LiftProj-MIRCut-Covers:LiftProj 0
CPXPARAM_MIP_Cuts_Disjunctive-LiftProj-MIRCut-Covers:MIRCut 22
CPXPARAM_MIP_Cuts_Disjunctive-LiftProj-MIRCut-Covers:Covers 0
38
Node Left Objective IInf Best_Integer Best_Bound ItCnt Gap
0 0 47.4773 2 47.4773 45
0+ 0 nan nan 47.5785 47.4773 nan 0.21%
0+ 0 nan nan 47.5785 47.4773 nan 0.21%
0 0 47.4773 2 47.5785 47.4773 93 0.21%
0 0 47.4773 2 47.5785 Disjcuts:1 97 0.21%
0 0 cutoff 47.5785 101 0.00% 0 0
CPXPARAM_MIP_Cuts_Disjunctive-LiftProj-MIRCut-Covers:Disjunctive 0
CPXPARAM_MIP_Cuts_Disjunctive-LiftProj-MIRCut-Covers:LiftProj 0
CPXPARAM_MIP_Cuts_Disjunctive-LiftProj-MIRCut-Covers:MIRCut 0
CPXPARAM_MIP_Cuts_Disjunctive-LiftProj-MIRCut-Covers:Covers 1
39
Node Left Objective IInf Best_Integer Best_Bound ItCnt Gap
0 0 7.0905 2 7.0905 43
0 0 7.0905 2 Disjcuts:1 46
0+ 0 nan nan 7.1260 7.0905 nan 0.50%
0+ 0 nan nan 7.1260 7.0905 nan 0.50%
0 0 7.0905 1 7.1260 7.0905 89 0.50%
0 0 cutoff 7.1260 92 0.00% 0 0
CPXPARAM_MIP_Cuts_Disjunctive-LiftProj-MIRCut-Covers:Disjunctive 0
CPXPARAM_MIP_Cuts_Disjunctive-LiftProj-MIRCut-Covers:LiftProj 0
CPXPARAM_MIP_Cuts_Disjunctive-LiftProj-MIRCut-Covers:MIRCut 0
CPXPARAM_MIP_Cuts_Disjunctive-LiftProj-MIRCut-Covers:Covers 0
